NAME (null)_copy
ROWS
 N  OBJ
 E  c0      
 E  c1      
 E  c2      
 E  c3      
 E  c4      
 E  c5      
 E  c6      
 E  c7      
 E  c8      
 E  c9      
 E  c10     
 E  c11     
 E  c12     
 E  c13     
 E  c14     
 E  c15     
 L  c16     
 L  c17     
 L  c18     
 L  c19     
 L  c20     
 L  c21     
 L  c22     
 L  c23     
 L  c24     
 L  c25     
 L  c26     
 L  c27     
 E  c28     
 E  c29     
 E  c30     
 E  c31     
 E  c32     
 E  c33     
 E  c34     
 E  c35     
 E  c36     
 L  c37     
 L  c38     
 L  c39     
 L  c40     
 L  c41     
 L  c42     
 L  c43     
 L  c44     
 L  c45     
 L  c46     
 L  c47     
 L  c48     
 L  c49     
 L  c50     
 L  c51     
 L  c52     
 L  c53     
 L  c54     
 L  c55     
 L  c56     
 L  c57     
 L  c58     
 L  c59     
 L  c60     
 L  c61     
 L  c62     
 L  c63     
 L  c64     
 L  c65     
 L  c66     
 L  c67     
 L  c68     
 L  c69     
 L  c70     
 L  c71     
 L  c72     
 L  c73     
 L  c74     
 L  c75     
 L  c76     
 L  c77     
 L  c78     
 L  c79     
 L  c80     
 L  c81     
 L  c82     
 L  c83     
 L  c84     
 L  c85     
 L  c86     
 L  c87     
 L  c88     
 L  c89     
 L  c90     
 L  c91     
 L  c92     
 L  c93     
 L  c94     
 L  c95     
 L  c96     
 L  c97     
 L  c98     
 L  c99     
 L  c100    
 L  c101    
 L  c102    
 L  c103    
 L  c104    
 L  c105    
 L  c106    
 L  c107    
 L  c108    
 L  c109    
 L  c110    
 L  c111    
 L  c112    
 L  c113    
 L  c114    
 L  c115    
 L  c116    
 L  c117    
 L  c118    
 L  c119    
 L  c120    
 L  c121    
 L  c122    
 L  c123    
 L  c124    
 L  c125    
 L  c126    
 L  c127    
 L  c128    
 L  c129    
 L  c130    
 L  c131    
 L  c132    
 L  c133    
 L  c134    
 L  c135    
 L  c136    
 L  c137    
 L  c138    
 L  c139    
 L  c140    
 L  c141    
 L  c142    
 L  c143    
 L  c144    
 L  c145    
 L  c146    
 L  c147    
 L  c148    
 L  c149    
 L  c150    
COLUMNS
    MARKER    'MARKER'                 'INTORG'
    x[0,0,0]  c0        1
    x[0,0,0]  c3        -1
    x[0,0,0]  c16       1
    x[0,0,0]  c37       3
    x[0,0,0]  c49       3
    x[0,0,0]  c90       -1
    x[0,0,0]  c101      -1
    x[0,0,0]  c102      -1
    x[0,0,0]  c103      -1
    x[0,0,0]  c112      1
    x[0,0,0]  c127      1
    x[0,0,0]  c141      -1
    x[0,0,0]  c142      -1
    x[0,0,0]  c145      -1
    x[0,0,0]  c146      -1
    x[0,0,0]  c149      -1
    x[0,0,0]  c150      -1
    x[0,0,1]  c0        1
    x[0,0,1]  c4        -1
    x[0,0,1]  c17       1
    x[0,0,1]  c38       3
    x[0,0,1]  c53       3
    x[0,0,1]  c94       -1
    x[0,0,1]  c105      -1
    x[0,0,1]  c106      -1
    x[0,0,1]  c107      -1
    x[0,0,1]  c116      1
    x[0,0,1]  c131      1
    x[0,0,1]  c145      -1
    x[0,0,1]  c146      -1
    x[0,0,1]  c149      -1
    x[0,0,1]  c150      -1
    x[0,0,2]  c0        1
    x[0,0,2]  c18       1
    x[0,0,2]  c39       3
    x[0,0,2]  c57       3
    x[0,0,2]  c98       -1
    x[0,0,2]  c109      -1
    x[0,0,2]  c110      -1
    x[0,0,2]  c111      -1
    x[0,0,2]  c120      1
    x[0,0,2]  c135      1
    x[0,0,2]  c149      -1
    x[0,0,2]  c150      -1
    x[0,1,0]  c0        1
    x[0,1,0]  c3        -1
    x[0,1,0]  c19       1
    x[0,1,0]  c40       3
    x[0,1,0]  c50       3
    x[0,1,0]  c76       -1
    x[0,1,0]  c78       -1
    x[0,1,0]  c113      1
    x[0,1,0]  c128      1
    x[0,1,0]  c141      -1
    x[0,1,0]  c142      -1
    x[0,1,0]  c145      -1
    x[0,1,0]  c146      -1
    x[0,1,0]  c149      -1
    x[0,1,0]  c150      -1
    x[0,1,1]  c0        1
    x[0,1,1]  c4        -1
    x[0,1,1]  c20       1
    x[0,1,1]  c41       3
    x[0,1,1]  c54       3
    x[0,1,1]  c80       -1
    x[0,1,1]  c82       -1
    x[0,1,1]  c117      1
    x[0,1,1]  c132      1
    x[0,1,1]  c145      -1
    x[0,1,1]  c146      -1
    x[0,1,1]  c149      -1
    x[0,1,1]  c150      -1
    x[0,1,2]  c0        1
    x[0,1,2]  c21       1
    x[0,1,2]  c42       3
    x[0,1,2]  c58       3
    x[0,1,2]  c84       -1
    x[0,1,2]  c86       -1
    x[0,1,2]  c121      1
    x[0,1,2]  c136      1
    x[0,1,2]  c149      -1
    x[0,1,2]  c150      -1
    x[1,0,0]  c1        1
    x[1,0,0]  c5        -1
    x[1,0,0]  c22       1
    x[1,0,0]  c43       3
    x[1,0,0]  c51       3
    x[1,0,0]  c61       3
    x[1,0,0]  c114      1
    x[1,0,0]  c129      1
    x[1,0,1]  c1        1
    x[1,0,1]  c6        -1
    x[1,0,1]  c23       1
    x[1,0,1]  c44       3
    x[1,0,1]  c55       3
    x[1,0,1]  c62       3
    x[1,0,1]  c118      1
    x[1,0,1]  c133      1
    x[1,0,2]  c1        1
    x[1,0,2]  c24       1
    x[1,0,2]  c45       3
    x[1,0,2]  c59       3
    x[1,0,2]  c63       3
    x[1,0,2]  c122      1
    x[1,0,2]  c137      1
    x[2,0,0]  c2        1
    x[2,0,0]  c3        -1
    x[2,0,0]  c10       1
    x[2,0,0]  c13       1
    x[2,0,0]  c25       1
    x[2,0,0]  c46       3
    x[2,0,0]  c52       3
    x[2,0,0]  c76       -1
    x[2,0,0]  c78       -1
    x[2,0,0]  c115      1
    x[2,0,0]  c130      1
    x[2,0,0]  c141      -1
    x[2,0,0]  c145      -1
    x[2,0,0]  c149      -1
    x[2,0,1]  c2        1
    x[2,0,1]  c4        -1
    x[2,0,1]  c13       1
    x[2,0,1]  c26       1
    x[2,0,1]  c47       3
    x[2,0,1]  c56       3
    x[2,0,1]  c80       -1
    x[2,0,1]  c82       -1
    x[2,0,1]  c119      1
    x[2,0,1]  c134      1
    x[2,0,1]  c145      -1
    x[2,0,1]  c149      -1
    x[2,0,2]  c2        1
    x[2,0,2]  c27       1
    x[2,0,2]  c48       3
    x[2,0,2]  c60       3
    x[2,0,2]  c84       -1
    x[2,0,2]  c86       -1
    x[2,0,2]  c123      1
    x[2,0,2]  c138      1
    x[2,0,2]  c149      -1
    y[0,0,0]  c64       -1
    y[0,0,0]  c89       -1
    y[0,0,0]  c91       -1
    y[0,0,0]  c124      1
    y[0,0,0]  c127      -1
    y[0,0,0]  c128      -1
    y[0,0,0]  c130      -1
    y[0,0,0]  c139      4
    y[0,0,1]  c68       -1
    y[0,0,1]  c93       -1
    y[0,0,1]  c95       -1
    y[0,0,1]  c125      1
    y[0,0,1]  c131      -1
    y[0,0,1]  c132      -1
    y[0,0,1]  c134      -1
    y[0,0,1]  c143      4
    y[0,0,2]  c72       -1
    y[0,0,2]  c97       -1
    y[0,0,2]  c99       -1
    y[0,0,2]  c126      1
    y[0,0,2]  c135      -1
    y[0,0,2]  c136      -1
    y[0,0,2]  c138      -1
    y[0,0,2]  c147      4
    y[0,1,0]  c65       -1
    y[0,1,0]  c67       -1
    y[0,1,0]  c124      1
    y[0,1,0]  c127      -1
    y[0,1,0]  c128      -1
    y[0,1,0]  c130      -1
    y[0,1,0]  c140      6
    y[0,1,1]  c69       -1
    y[0,1,1]  c71       -1
    y[0,1,1]  c125      1
    y[0,1,1]  c131      -1
    y[0,1,1]  c132      -1
    y[0,1,1]  c134      -1
    y[0,1,1]  c144      6
    y[0,1,2]  c73       -1
    y[0,1,2]  c75       -1
    y[0,1,2]  c126      1
    y[0,1,2]  c135      -1
    y[0,1,2]  c136      -1
    y[0,1,2]  c138      -1
    y[0,1,2]  c148      6
    y[1,0,0]  c64       -1
    y[1,0,0]  c66       -1
    y[1,0,0]  c89       -1
    y[1,0,0]  c91       -1
    y[1,0,0]  c124      1
    y[1,0,0]  c127      -1
    y[1,0,0]  c128      -1
    y[1,0,0]  c129      -1
    y[1,0,0]  c130      -1
    y[1,0,0]  c141      6
    y[1,0,1]  c68       -1
    y[1,0,1]  c70       -1
    y[1,0,1]  c93       -1
    y[1,0,1]  c95       -1
    y[1,0,1]  c125      1
    y[1,0,1]  c131      -1
    y[1,0,1]  c132      -1
    y[1,0,1]  c133      -1
    y[1,0,1]  c134      -1
    y[1,0,1]  c145      6
    y[1,0,2]  c72       -1
    y[1,0,2]  c74       -1
    y[1,0,2]  c97       -1
    y[1,0,2]  c99       -1
    y[1,0,2]  c126      1
    y[1,0,2]  c135      -1
    y[1,0,2]  c136      -1
    y[1,0,2]  c137      -1
    y[1,0,2]  c138      -1
    y[1,0,2]  c149      6
    y[2,0,0]  c65       -1
    y[2,0,0]  c67       -1
    y[2,0,0]  c124      1
    y[2,0,0]  c127      -1
    y[2,0,0]  c128      -1
    y[2,0,0]  c130      -1
    y[2,0,0]  c142      6
    y[2,0,1]  c69       -1
    y[2,0,1]  c71       -1
    y[2,0,1]  c125      1
    y[2,0,1]  c131      -1
    y[2,0,1]  c132      -1
    y[2,0,1]  c134      -1
    y[2,0,1]  c146      6
    y[2,0,2]  c73       -1
    y[2,0,2]  c75       -1
    y[2,0,2]  c126      1
    y[2,0,2]  c135      -1
    y[2,0,2]  c136      -1
    y[2,0,2]  c138      -1
    y[2,0,2]  c150      6
    z1[0,0,0]  c64       1
    z1[0,0,0]  c112      -1
    z2[0,0,0]  c76       3
    z2[0,0,0]  c112      -1
    z3[0,0,0]  c88       2
    z3[0,0,0]  c112      -1
    z3[0,0,0]  c139      1
    z3[0,0,0]  c140      1
    z3[0,0,0]  c141      1
    z3[0,0,0]  c142      1
    z4[0,0,0]  c100      2
    z4[0,0,0]  c112      -1
    z4[0,0,0]  c139      1
    z4[0,0,0]  c140      1
    z4[0,0,0]  c141      1
    z4[0,0,0]  c142      1
    z1[0,0,1]  c68       1
    z1[0,0,1]  c116      -1
    z2[0,0,1]  c80       3
    z2[0,0,1]  c116      -1
    z3[0,0,1]  c92       2
    z3[0,0,1]  c116      -1
    z3[0,0,1]  c143      1
    z3[0,0,1]  c144      1
    z3[0,0,1]  c145      1
    z3[0,0,1]  c146      1
    z4[0,0,1]  c104      2
    z4[0,0,1]  c116      -1
    z4[0,0,1]  c143      1
    z4[0,0,1]  c144      1
    z4[0,0,1]  c145      1
    z4[0,0,1]  c146      1
    z1[0,0,2]  c72       1
    z1[0,0,2]  c120      -1
    z2[0,0,2]  c84       3
    z2[0,0,2]  c120      -1
    z3[0,0,2]  c96       2
    z3[0,0,2]  c120      -1
    z3[0,0,2]  c147      1
    z3[0,0,2]  c148      1
    z3[0,0,2]  c149      1
    z3[0,0,2]  c150      1
    z4[0,0,2]  c108      2
    z4[0,0,2]  c120      -1
    z4[0,0,2]  c147      1
    z4[0,0,2]  c148      1
    z4[0,0,2]  c149      1
    z4[0,0,2]  c150      1
    z1[0,1,0]  c65       1
    z1[0,1,0]  c113      -1
    z2[0,1,0]  c77       3
    z2[0,1,0]  c113      -1
    z3[0,1,0]  c76       1
    z3[0,1,0]  c78       1
    z3[0,1,0]  c89       2
    z3[0,1,0]  c113      -1
    z3[0,1,0]  c139      1
    z3[0,1,0]  c140      1
    z3[0,1,0]  c141      1
    z3[0,1,0]  c142      1
    z4[0,1,0]  c76       1
    z4[0,1,0]  c78       1
    z4[0,1,0]  c101      2
    z4[0,1,0]  c113      -1
    z4[0,1,0]  c139      1
    z4[0,1,0]  c140      1
    z4[0,1,0]  c141      1
    z4[0,1,0]  c142      1
    z1[0,1,1]  c69       1
    z1[0,1,1]  c117      -1
    z2[0,1,1]  c81       3
    z2[0,1,1]  c117      -1
    z3[0,1,1]  c80       1
    z3[0,1,1]  c82       1
    z3[0,1,1]  c93       2
    z3[0,1,1]  c117      -1
    z3[0,1,1]  c143      1
    z3[0,1,1]  c144      1
    z3[0,1,1]  c145      1
    z3[0,1,1]  c146      1
    z4[0,1,1]  c80       1
    z4[0,1,1]  c82       1
    z4[0,1,1]  c105      2
    z4[0,1,1]  c117      -1
    z4[0,1,1]  c143      1
    z4[0,1,1]  c144      1
    z4[0,1,1]  c145      1
    z4[0,1,1]  c146      1
    z1[0,1,2]  c73       1
    z1[0,1,2]  c121      -1
    z2[0,1,2]  c85       3
    z2[0,1,2]  c121      -1
    z3[0,1,2]  c84       1
    z3[0,1,2]  c86       1
    z3[0,1,2]  c97       2
    z3[0,1,2]  c121      -1
    z3[0,1,2]  c147      1
    z3[0,1,2]  c148      1
    z3[0,1,2]  c149      1
    z3[0,1,2]  c150      1
    z4[0,1,2]  c84       1
    z4[0,1,2]  c86       1
    z4[0,1,2]  c109      2
    z4[0,1,2]  c121      -1
    z4[0,1,2]  c147      1
    z4[0,1,2]  c148      1
    z4[0,1,2]  c149      1
    z4[0,1,2]  c150      1
    z1[1,0,0]  c66       1
    z1[1,0,0]  c114      -1
    z2[1,0,0]  c78       3
    z2[1,0,0]  c114      -1
    z3[1,0,0]  c90       2
    z3[1,0,0]  c114      -1
    z3[1,0,0]  c139      1
    z3[1,0,0]  c140      1
    z3[1,0,0]  c141      1
    z3[1,0,0]  c142      1
    z4[1,0,0]  c102      2
    z4[1,0,0]  c114      -1
    z4[1,0,0]  c139      1
    z4[1,0,0]  c140      1
    z4[1,0,0]  c141      1
    z4[1,0,0]  c142      1
    z1[1,0,1]  c70       1
    z1[1,0,1]  c118      -1
    z2[1,0,1]  c82       3
    z2[1,0,1]  c118      -1
    z3[1,0,1]  c94       2
    z3[1,0,1]  c118      -1
    z3[1,0,1]  c143      1
    z3[1,0,1]  c144      1
    z3[1,0,1]  c145      1
    z3[1,0,1]  c146      1
    z4[1,0,1]  c106      2
    z4[1,0,1]  c118      -1
    z4[1,0,1]  c143      1
    z4[1,0,1]  c144      1
    z4[1,0,1]  c145      1
    z4[1,0,1]  c146      1
    z1[1,0,2]  c74       1
    z1[1,0,2]  c122      -1
    z2[1,0,2]  c86       3
    z2[1,0,2]  c122      -1
    z3[1,0,2]  c98       2
    z3[1,0,2]  c122      -1
    z3[1,0,2]  c147      1
    z3[1,0,2]  c148      1
    z3[1,0,2]  c149      1
    z3[1,0,2]  c150      1
    z4[1,0,2]  c110      2
    z4[1,0,2]  c122      -1
    z4[1,0,2]  c147      1
    z4[1,0,2]  c148      1
    z4[1,0,2]  c149      1
    z4[1,0,2]  c150      1
    z1[2,0,0]  c67       1
    z1[2,0,0]  c115      -1
    z2[2,0,0]  c79       3
    z2[2,0,0]  c115      -1
    z3[2,0,0]  c76       1
    z3[2,0,0]  c78       1
    z3[2,0,0]  c91       2
    z3[2,0,0]  c115      -1
    z3[2,0,0]  c139      1
    z3[2,0,0]  c140      1
    z3[2,0,0]  c141      1
    z3[2,0,0]  c142      1
    z4[2,0,0]  c76       1
    z4[2,0,0]  c78       1
    z4[2,0,0]  c103      2
    z4[2,0,0]  c115      -1
    z4[2,0,0]  c139      1
    z4[2,0,0]  c140      1
    z4[2,0,0]  c141      1
    z4[2,0,0]  c142      1
    z1[2,0,1]  c71       1
    z1[2,0,1]  c119      -1
    z2[2,0,1]  c83       3
    z2[2,0,1]  c119      -1
    z3[2,0,1]  c80       1
    z3[2,0,1]  c82       1
    z3[2,0,1]  c95       2
    z3[2,0,1]  c119      -1
    z3[2,0,1]  c143      1
    z3[2,0,1]  c144      1
    z3[2,0,1]  c145      1
    z3[2,0,1]  c146      1
    z4[2,0,1]  c80       1
    z4[2,0,1]  c82       1
    z4[2,0,1]  c107      2
    z4[2,0,1]  c119      -1
    z4[2,0,1]  c143      1
    z4[2,0,1]  c144      1
    z4[2,0,1]  c145      1
    z4[2,0,1]  c146      1
    z1[2,0,2]  c75       1
    z1[2,0,2]  c123      -1
    z2[2,0,2]  c87       3
    z2[2,0,2]  c123      -1
    z3[2,0,2]  c84       1
    z3[2,0,2]  c86       1
    z3[2,0,2]  c99       2
    z3[2,0,2]  c123      -1
    z3[2,0,2]  c147      1
    z3[2,0,2]  c148      1
    z3[2,0,2]  c149      1
    z3[2,0,2]  c150      1
    z4[2,0,2]  c84       1
    z4[2,0,2]  c86       1
    z4[2,0,2]  c111      2
    z4[2,0,2]  c123      -1
    z4[2,0,2]  c147      1
    z4[2,0,2]  c148      1
    z4[2,0,2]  c149      1
    z4[2,0,2]  c150      1
    u[0,0,0]  c16       -1
    u[0,0,0]  c28       1
    u[0,0,1]  c17       -1
    u[0,0,1]  c31       1
    u[0,0,2]  c18       -1
    u[0,0,2]  c34       1
    u[0,1,0]  c7        -1
    u[0,1,0]  c19       -1
    u[0,1,0]  c28       1
    u[0,1,1]  c10       -1
    u[0,1,1]  c20       -1
    u[0,1,1]  c31       1
    u[0,1,2]  c13       -1
    u[0,1,2]  c21       -1
    u[0,1,2]  c34       1
    u[1,0,0]  c22       -1
    u[1,0,0]  c29       1
    u[1,0,1]  c23       -1
    u[1,0,1]  c32       1
    u[1,0,2]  c24       -1
    u[1,0,2]  c35       1
    u[2,0,0]  c25       -1
    u[2,0,0]  c30       1
    u[2,0,1]  c26       -1
    u[2,0,1]  c33       1
    u[2,0,2]  c27       -1
    u[2,0,2]  c36       1
    MARKER    'MARKER'                 'INTEND'
    h[0,0]    c3        1
    h[0,0]    c49       -1
    h[0,0]    c50       -1
    h[0,0]    c51       -1
    h[0,0]    c52       -1
    h[0,1]    c3        -1
    h[0,1]    c4        1
    h[0,1]    c53       -1
    h[0,1]    c54       -1
    h[0,1]    c55       -1
    h[0,1]    c56       -1
    h[0,2]    c4        -1
    h[0,2]    c57       -1
    h[0,2]    c58       -1
    h[0,2]    c59       -1
    h[0,2]    c60       -1
    h[1,0]    c5        1
    h[1,0]    c61       -1
    h[1,1]    c5        -1
    h[1,1]    c6        1
    h[1,1]    c62       -1
    h[1,2]    c6        -1
    h[1,2]    c63       -1
    e[0]      OBJ       1
    e[0]      c139      -1
    e[0]      c140      -1
    e[0]      c141      -1
    e[0]      c142      -1
    e[1]      OBJ       1
    e[1]      c143      -1
    e[1]      c144      -1
    e[1]      c145      -1
    e[1]      c146      -1
    e[2]      OBJ       1
    e[2]      c147      -1
    e[2]      c148      -1
    e[2]      c149      -1
    e[2]      c150      -1
RHS
    RHS1      c0        1
    RHS1      c1        1
    RHS1      c2        1
    RHS1      c28       1
    RHS1      c29       1
    RHS1      c30       1
    RHS1      c31       1
    RHS1      c32       1
    RHS1      c33       1
    RHS1      c34       1
    RHS1      c35       1
    RHS1      c36       1
    RHS1      c37       5
    RHS1      c38       5
    RHS1      c39       5
    RHS1      c40       6
    RHS1      c41       6
    RHS1      c42       6
    RHS1      c43       5
    RHS1      c44       5
    RHS1      c45       5
    RHS1      c46       6
    RHS1      c47       6
    RHS1      c48       6
    RHS1      c49       2
    RHS1      c50       3
    RHS1      c51       2
    RHS1      c52       3
    RHS1      c53       2
    RHS1      c54       3
    RHS1      c55       2
    RHS1      c56       3
    RHS1      c57       2
    RHS1      c58       3
    RHS1      c59       2
    RHS1      c60       3
    RHS1      c61       2
    RHS1      c62       2
    RHS1      c63       2
    RHS1      c76       1
    RHS1      c77       1
    RHS1      c79       1
    RHS1      c80       1
    RHS1      c81       1
    RHS1      c83       1
    RHS1      c84       1
    RHS1      c85       1
    RHS1      c87       1
    RHS1      c124      1
    RHS1      c125      1
    RHS1      c126      1
    RHS1      c139      1
    RHS1      c140      1
    RHS1      c141      1
    RHS1      c142      1
    RHS1      c143      1
    RHS1      c144      1
    RHS1      c145      1
    RHS1      c146      1
    RHS1      c147      1
    RHS1      c148      1
    RHS1      c149      1
    RHS1      c150      1
BOUNDS
 BV BND1      x[0,0,0]
 BV BND1      x[0,0,1]
 BV BND1      x[0,0,2]
 BV BND1      x[0,1,0]
 BV BND1      x[0,1,1]
 BV BND1      x[0,1,2]
 BV BND1      x[1,0,0]
 BV BND1      x[1,0,1]
 BV BND1      x[1,0,2]
 BV BND1      x[2,0,0]
 BV BND1      x[2,0,1]
 BV BND1      x[2,0,2]
 BV BND1      y[0,0,0]
 BV BND1      y[0,0,1]
 BV BND1      y[0,0,2]
 BV BND1      y[0,1,0]
 BV BND1      y[0,1,1]
 BV BND1      y[0,1,2]
 BV BND1      y[1,0,0]
 BV BND1      y[1,0,1]
 BV BND1      y[1,0,2]
 BV BND1      y[2,0,0]
 BV BND1      y[2,0,1]
 BV BND1      y[2,0,2]
 BV BND1      z1[0,0,0]
 BV BND1      z2[0,0,0]
 BV BND1      z3[0,0,0]
 BV BND1      z4[0,0,0]
 BV BND1      z1[0,0,1]
 BV BND1      z2[0,0,1]
 BV BND1      z3[0,0,1]
 BV BND1      z4[0,0,1]
 BV BND1      z1[0,0,2]
 BV BND1      z2[0,0,2]
 BV BND1      z3[0,0,2]
 BV BND1      z4[0,0,2]
 BV BND1      z1[0,1,0]
 BV BND1      z2[0,1,0]
 BV BND1      z3[0,1,0]
 BV BND1      z4[0,1,0]
 BV BND1      z1[0,1,1]
 BV BND1      z2[0,1,1]
 BV BND1      z3[0,1,1]
 BV BND1      z4[0,1,1]
 BV BND1      z1[0,1,2]
 BV BND1      z2[0,1,2]
 BV BND1      z3[0,1,2]
 BV BND1      z4[0,1,2]
 BV BND1      z1[1,0,0]
 BV BND1      z2[1,0,0]
 BV BND1      z3[1,0,0]
 BV BND1      z4[1,0,0]
 BV BND1      z1[1,0,1]
 BV BND1      z2[1,0,1]
 BV BND1      z3[1,0,1]
 BV BND1      z4[1,0,1]
 BV BND1      z1[1,0,2]
 BV BND1      z2[1,0,2]
 BV BND1      z3[1,0,2]
 BV BND1      z4[1,0,2]
 BV BND1      z1[2,0,0]
 BV BND1      z2[2,0,0]
 BV BND1      z3[2,0,0]
 BV BND1      z4[2,0,0]
 BV BND1      z1[2,0,1]
 BV BND1      z2[2,0,1]
 BV BND1      z3[2,0,1]
 BV BND1      z4[2,0,1]
 BV BND1      z1[2,0,2]
 BV BND1      z2[2,0,2]
 BV BND1      z3[2,0,2]
 BV BND1      z4[2,0,2]
 BV BND1      u[0,0,0]
 BV BND1      u[0,0,1]
 BV BND1      u[0,0,2]
 BV BND1      u[0,1,0]
 BV BND1      u[0,1,1]
 BV BND1      u[0,1,2]
 BV BND1      u[1,0,0]
 BV BND1      u[1,0,1]
 BV BND1      u[1,0,2]
 BV BND1      u[2,0,0]
 BV BND1      u[2,0,1]
 BV BND1      u[2,0,2]
 FX BND1      h[0,0]    3
 UP BND1      h[0,1]    3
 UP BND1      h[0,2]    3
 FX BND1      h[1,0]    3
 UP BND1      h[1,1]    3
 UP BND1      h[1,2]    3
 UP BND1      e[0]      9
 UP BND1      e[1]      9
 UP BND1      e[2]      9
ENDATA
